# Solution for model GasLib-40
# Objective value = 1.1576862929528870e+01
loadshed[innode_1] 0
loadshed[innode_2] 0
loadshed[innode_3] 0
loadshed[innode_4] 0
loadshed[innode_5] 0
loadshed[innode_6] 0
loadshed[innode_7] 0
loadshed[innode_8] 0
loadshed[source_1] -1.9332755410120250e-01
loadshed[source_2] -2.4966033007045363e-02
loadshed[source_3] 2.9152302975490541e-01
loadshed[sink_1] 0
loadshed[sink_2] 0
loadshed[sink_3] 0
loadshed[sink_4] 0
loadshed[sink_5] 0
loadshed[sink_6] 0
loadshed[sink_7] 0
loadshed[sink_8] 0
loadshed[sink_9] 0
loadshed[sink_10] 0
loadshed[sink_11] 0
loadshed[sink_12] 7.0788461225144683e-01
loadshed[sink_13] 0
loadshed[sink_14] 0
loadshed[sink_15] 0
loadshed[sink_16] 0
loadshed[sink_17] 0
loadshed[sink_18] 0
loadshed[sink_19] 0
loadshed[sink_20] 0
loadshed[sink_21] 0
loadshed[sink_22] 0
loadshed[sink_23] 0
loadshed[sink_24] 0
loadshed[sink_25] 0
loadshed[sink_26] 0
loadshed[sink_27] 0
loadshed[sink_28] 0
loadshed[sink_29] 0
flow[source_1,sink_3] 1.8865348450773524e+02
flow[innode_1,sink_16] 1.6354166666666970e+01
flow[innode_6,sink_13] 2.4758456414617029e+00
flow[sink_13,sink_14] -1.3878321025204965e+01
flow[sink_14,sink_10] -3.0232487691871633e+01
flow[sink_25,sink_26] 1.7864750400114519e+02
flow[sink_26,sink_9] 1.3561063707047137e+02
flow[sink_9,sink_18] 1.1925647040380470e+02
flow[sink_26,sink_4] 2.6682700264007906e+01
flow[sink_4,sink_20] -3.8733966402660712e+01
flow[sink_18,sink_6] 1.0290230373713803e+02
flow[sink_25,innode_8] -1.5594515117439889e+02
flow[sink_6,sink_7] 53.8398037371378
flow[sink_6,sink_22] 3.2708333333333641e+01
flow[sink_7,sink_24] 3.7485637070471128e+01
flow[sink_22,sink_1] 1.6354166666666970e+01
flow[sink_24,sink_21] 2.1131470403804464e+01
flow[sink_21,sink_12] 4.7773037371377960e+00
flow[sink_7,sink_5] 0
flow[sink_5,sink_17] -1.6354166666667197e+01
flow[sink_17,sink_4] -4.9062500000002274e+01
flow[sink_17,sink_8] 1.6354166666668334e+01
flow[sink_3,sink_23] 16.3541666666697
flow[sink_8,sink_20] 0
flow[sink_25,sink_20] 5.5088133069327569e+01
flow[sink_25,sink_15] -9.6620498204202846e+01
flow[sink_15,sink_29] -6.2959164859121373e+01
flow[sink_29,sink_28] 1.6354166666667879e+01
flow[sink_29,sink_2] 6.6369666678414816e+01
flow[sink_2,sink_15] 5.0015500011748145e+01
flow[sink_29,innode_7] -1.6203716487087075e+02
flow[innode_4,sink_19] 0
flow[sink_19,innode_3] 3.8695619289672536e+01
flow[innode_4,innode_5] 1.1200332102520541e+02
flow[sink_27,innode_5] -1.1200332102520541e+02
flow[sink_27,sink_19] 9.5649154358538738e+01
flow[sink_10,sink_11] 3.2708333333333641e+01
flow[sink_10,innode_2] -40.5993684021994
flow[sink_10,innode_3] -3.8695619289672536e+01
flow[innode_6,sink_25] -2.4758456414617029e+00
flow[sink_11,innode_1] 1.6354166666666970e+01
flow[sink_19,innode_2] 40.5993684021994
flow[source_3,innode_4] 1.1200332102520541e+02
flow[source_2,innode_7] 1.6203716487087075e+02
flow[sink_3,innode_8] 1.5594515117439889e+02
pressure[innode_1] 7.5655619333951250e+01
pressure[innode_2] 77.9531649424943
pressure[innode_3] 7.7867477875380857e+01
pressure[innode_4] 81.01325
pressure[innode_5] 8.0936208209845447e+01
pressure[innode_6] 7.4366178910178931e+01
pressure[innode_7] 81.01325
pressure[innode_8] 80.3826534695339
pressure[source_1] 81.01325
pressure[source_2] 81.01325
pressure[source_3] 81.01325
pressure[sink_1] 4.4503563441939988e+01
pressure[sink_2] 7.4998172059892127e+01
pressure[sink_3] 80.3826534695339
pressure[sink_4] 5.8391632547762178e+01
pressure[sink_5] 55.2983583710003
pressure[sink_6] 4.6604641052327359e+01
pressure[sink_7] 4.5865548881684944e+01
pressure[sink_8] 5.5899540380941424e+01
pressure[sink_9] 5.3667493487151916e+01
pressure[sink_10] 75.8073206415548
pressure[sink_11] 7.5655619333951250e+01
pressure[sink_12] 1.0132500000000040e+00
pressure[sink_13] 74.3525299869098
pressure[sink_14] 7.4377366424555916e+01
pressure[sink_15] 7.4834882475592423e+01
pressure[sink_16] 7.4633969499133570e+01
pressure[sink_17] 5.6516625576355047e+01
pressure[sink_18] 4.9352438942530668e+01
pressure[sink_19] 77.9531649424943
pressure[sink_20] 6.1233336426175590e+01
pressure[sink_21] 2.7132761325256203e+00
pressure[sink_22] 4.5567332584294995e+01
pressure[sink_23] 8.0217935457874120e+01
pressure[sink_24] 2.9472875337702149e+00
pressure[sink_25] 7.4366178910178931e+01
pressure[sink_26] 6.1784140117239296e+01
pressure[sink_27] 8.0006787605220339e+01
pressure[sink_28] 7.6384108345951120e+01
pressure[sink_29] 76.6793906195683
interdiction[source_1,sink_3] 0
interdiction[innode_1,sink_16] 0
interdiction[innode_6,sink_13] 0
interdiction[sink_13,sink_14] 0
interdiction[sink_14,sink_10] 0
interdiction[sink_25,sink_26] 0
interdiction[sink_26,sink_9] 0
interdiction[sink_9,sink_18] 0
interdiction[sink_26,sink_4] 0
interdiction[sink_4,sink_20] 0
interdiction[sink_18,sink_6] 0
interdiction[sink_25,innode_8] 0
interdiction[sink_6,sink_7] 0
interdiction[sink_6,sink_22] 0
interdiction[sink_7,sink_24] 0
interdiction[sink_22,sink_1] 0
interdiction[sink_24,sink_21] 0
interdiction[sink_21,sink_12] 0
interdiction[sink_7,sink_5] 1
interdiction[sink_5,sink_17] 0
interdiction[sink_17,sink_4] 0
interdiction[sink_17,sink_8] 0
interdiction[sink_3,sink_23] 0
interdiction[sink_8,sink_20] 1
interdiction[sink_25,sink_20] 0
interdiction[sink_25,sink_15] 0
interdiction[sink_15,sink_29] 0
interdiction[sink_29,sink_28] 0
interdiction[sink_29,sink_2] 0
interdiction[sink_2,sink_15] 0
interdiction[sink_29,innode_7] 0
interdiction[innode_4,sink_19] 1
interdiction[sink_19,innode_3] 0
interdiction[innode_4,innode_5] 0
interdiction[sink_27,innode_5] 0
interdiction[sink_27,sink_19] 0
interdiction[sink_10,sink_11] 0
interdiction[sink_10,innode_2] 0
interdiction[sink_10,innode_3] 0
interdiction[innode_6,sink_25] 0
interdiction[sink_11,innode_1] 0
interdiction[sink_19,innode_2] 0
interdiction[source_3,innode_4] 0
interdiction[source_2,innode_7] 0
interdiction[sink_3,innode_8] 0
WCcheckFlow[source_1,sink_3] 39
WCcheckFlow[innode_1,sink_16] 1
WCcheckFlow[innode_6,sink_13] 13
WCcheckFlow[sink_13,sink_14] 12
WCcheckFlow[sink_14,sink_10] 11
WCcheckFlow[sink_25,sink_26] 15
WCcheckFlow[sink_26,sink_9] 9
WCcheckFlow[sink_9,sink_18] 8
WCcheckFlow[sink_26,sink_4] 5
WCcheckFlow[sink_4,sink_20] 1
WCcheckFlow[sink_18,sink_6] 7
WCcheckFlow[sink_25,innode_8] -36
WCcheckFlow[sink_6,sink_7] 4
WCcheckFlow[sink_6,sink_22] 2
WCcheckFlow[sink_7,sink_24] 3
WCcheckFlow[sink_22,sink_1] 1
WCcheckFlow[sink_24,sink_21] 2
WCcheckFlow[sink_21,sink_12] 1
WCcheckFlow[sink_7,sink_5] 0
WCcheckFlow[sink_5,sink_17] -1
WCcheckFlow[sink_17,sink_4] -3
WCcheckFlow[sink_17,sink_8] 1
WCcheckFlow[sink_3,sink_23] 1
WCcheckFlow[sink_8,sink_20] 0
WCcheckFlow[sink_25,sink_20] 0
WCcheckFlow[sink_25,sink_15] 6
WCcheckFlow[sink_15,sink_29] 5
WCcheckFlow[sink_29,sink_28] 1
WCcheckFlow[sink_29,sink_2] 1
WCcheckFlow[sink_2,sink_15] 0
WCcheckFlow[sink_29,innode_7] 2
WCcheckFlow[innode_4,sink_19] 0
WCcheckFlow[sink_19,innode_3] -5
WCcheckFlow[innode_4,innode_5] -2
WCcheckFlow[sink_27,innode_5] 3
WCcheckFlow[sink_27,sink_19] -4
WCcheckFlow[sink_10,sink_11] 3
WCcheckFlow[sink_10,innode_2] 1
WCcheckFlow[sink_10,innode_3] 6
WCcheckFlow[innode_6,sink_25] -14
WCcheckFlow[sink_11,innode_1] 2
WCcheckFlow[sink_19,innode_2] 0
WCcheckFlow[source_3,innode_4] -1
WCcheckFlow[source_2,innode_7] -1
WCcheckFlow[sink_3,innode_8] 37
